! Generated by using cif2qe Version 1.2 - Date: Thu Apr 18 12:42:09 CDT 2019
!   _symmetry_space_group_name_H-M = 
!   _symmetry_Int_Tables_number = 1
!   _symmetry_cell_setting = 
! a=13.7717  b=13.7717  c=4.42966  alpha=90  beta=90  gamma=161.449
! Found by cif2qe: lattice = triclinic    Space group = P1   ibrav = 14
!
!
! Symmetry found:
!   1                        x, y, z    [x]  [ y]  [ z]
&CONTROL
                       title = 'LaTe3_mp-1078612_primitive.cif'
                 calculation = 'relax'
                restart_mode = 'from_scratch'
                      pseudo_dir = '/soft/espresso/pslibrary.1.0.0/pbe/PSEUDOPOTENTIALS/',
                      prefix = 'LaTe3_primitive'
                     disk_io = 'none'
                   verbosity = 'default'
               etot_conv_thr = 0.0001
               forc_conv_thr = 0.001
                       nstep = 400
                     tstress = .true.
                     tprnfor = .true.
 /
 &SYSTEM
                       ibrav = 0
                         nat = 8
                        ntyp = 2
                     ecutwfc = 60
                     ecutrho = 480
                    vdw_corr = 'xdm'
                      xdm_a1 = 1.2153
                      xdm_a2 = 2.3704
 /
 &ELECTRONS
            electron_maxstep = 200
                    conv_thr = 1.0D-7
              diago_thr_init = 1e-4
                 startingpot = 'atomic'
                 startingwfc = 'atomic'
                 mixing_mode = 'plain'
                 mixing_beta = 0.5
                 mixing_ndim = 8
             diagonalization = 'david'
 /
&IONS
                ion_dynamics = 'bfgs'
 /

ATOMIC_SPECIES
   La  138.9050000000  La.pbe-spdfn-rrkjus_psl.1.0.0.UPF
   Te  127.6000000000  Te.pbe-dn-rrkjus_psl.1.0.0.UPF

ATOMIC_POSITIONS crystal
La      0.82986600000000      0.17013400000000      0.25000000000000
La      0.17013400000000      0.82986600000000      0.75000000000000
Te      0.07428400000000      0.92571600000000      0.25000000000000
Te      0.92571600000000      0.07428400000000      0.75000000000000
Te      0.42496300000000      0.57503700000000      0.25000000000000
Te      0.57503700000000      0.42496300000000      0.75000000000000
Te      0.70502600000000      0.29497400000000      0.25000000000000
Te      0.29497400000000      0.70502600000000      0.75000000000000

K_POINTS automatic
1  1  3   0 0 0

CELL_PARAMETERS {bohr}
    26.02482487236177      0.00000000000000      0.00000000000000
   -24.67258616517870      8.27979477758551      0.00000000000000
     0.00000000000000      0.00000000000000      8.37083787452389



